problems/problems/cplex/D1.S1.T2_2.dat
M = 99999999.0;
numWorkers = 15;
numRoles = 5;
numNodes = 40;
wStart = [0, 0, 0, 0, 0, 0, 0, 0, 0, 0, 0, 0, 0, 0, 0, 90, 210, 60, 90, 60, 120, 210, 330, 120, 180, 480, 480, 480, 480, 480, 480, 480, 480, 480, 480, 480, 480, 480, 480, 480];
wEnd = [0, 0, 0, 0, 0, 0, 0, 0, 0, 0, 0, 0, 0, 0, 0, 360, 270, 450, 330, 360, 360, 270, 390, 420, 390, 480, 480, 480, 480, 480, 480, 480, 480, 480, 480, 480, 480, 480, 480, 480];
p = [0, 0, 0, 0, 0, 0, 0, 0, 0, 0, 0, 0, 0, 0, 0, 63.84209908422086, 44.8452213373278, 38.46013979624101, 49.04428640439609, 46.2706533688808, 71.59274316499206, 21.839950436043267, 60.57269394316938, 45.39424757616767, 55.92681212534568, 0, 0, 0, 0, 0, 0, 0, 0, 0, 0, 0, 0, 0, 0, 0];
e = [[0, 0, 0, 1, 1], [1, 0, 1, 0, 0], [0, 1, 0, 0, 0], [0, 0, 1, 0, 0], [0, 1, 0, 0, 0], [0, 0, 0, 0, 1], [0, 0, 0, 0, 1], [1, 0, 0, 0, 0], [1, 0, 0, 0, 0], [0, 0, 1, 0, 0], [0, 0, 0, 1, 0], [0, 1, 0, 0, 0], [0, 0, 0, 1, 0], [0, 1, 0, 0, 0], [1, 0, 0, 0, 0]];
d = [[3, 0, 3, 1, 0, 3, 0, 3, 3, 3], [0, 1, 0, 0, 1, 0, 1, 0, 0, 0], [1, 1, 1, 0, 1, 1, 1, 1, 1, 1], [0, 1, 0, 1, 2, 0, 1, 0, 0, 0], [0, 1, 0, 2, 0, 0, 1, 0, 0, 0]];
r = [2913, 2488, 2317, 3740, 536, 2769, 695, 827, 175, 4874];
g = [[0, 0, 0, 0, 0, 0, 0, 0, 0, 0], [0, 0, 0, 0, 0, 0, 0, 0, 0, 0], [0, 0, 0, 0, 0, 0, 0, 0, 0, 0], [0, 0, 0, 0, 0, 0, 0, 0, 0, 0], [0, 0, 0, 0, 0, 0, 0, 0, 0, 0], [0, 0, 0, 0, 0, 0, 0, 0, 0, 0], [0, 0, 0, 0, 0, 0, 0, 0, 0, 0], [0, 0, 0, 0, 0, 0, 0, 0, 0, 0], [0, 0, 0, 0, 0, 0, 0, 0, 0, 0], [0, 0, 0, 0, 0, 0, 0, 0, 0, 0]];
t = [[0.0, 0.0, 0.0, 0.0, 0.0, 0.0, 0.0, 0.0, 0.0, 0.0, 0.0, 0.0, 0.0, 0.0, 0.0, 2.8045466759927113, 11.880210474589164, 14.018079805394173, 26.88789698870344, 32.88166567310776, 19.24345642759068, 6.388932402952596, 36.3927502725611, 2.872229681062668, 41.309003630543785, 0.0, 0.0, 0.0, 0.0, 0.0, 0.0, 0.0, 0.0, 0.0, 0.0, 0.0, 0.0, 0.0, 0.0, 0.0], [0.0, 0.0, 0.0, 0.0, 0.0, 0.0, 0.0, 0.0, 0.0, 0.0, 0.0, 0.0, 0.0, 0.0, 0.0, 2.8045466759927113, 11.880210474589164, 14.018079805394173, 26.88789698870344, 32.88166567310776, 19.24345642759068, 6.388932402952596, 36.3927502725611, 2.872229681062668, 41.309003630543785, 0.0, 0.0, 0.0, 0.0, 0.0, 0.0, 0.0, 0.0, 0.0, 0.0, 0.0, 0.0, 0.0, 0.0, 0.0], [0.0, 0.0, 0.0, 0.0, 0.0, 0.0, 0.0, 0.0, 0.0, 0.0, 0.0, 0.0, 0.0, 0.0, 0.0, 2.8045466759927113, 11.880210474589164, 14.018079805394173, 26.88789698870344, 32.88166567310776, 19.24345642759068, 6.388932402952596, 36.3927502725611, 2.872229681062668, 41.309003630543785, 0.0, 0.0, 0.0, 0.0, 0.0, 0.0, 0.0, 0.0, 0.0, 0.0, 0.0, 0.0, 0.0, 0.0, 0.0], [0.0, 0.0, 0.0, 0.0, 0.0, 0.0, 0.0, 0.0, 0.0, 0.0, 0.0, 0.0, 0.0, 0.0, 0.0, 2.8045466759927113, 11.880210474589164, 14.018079805394173, 26.88789698870344, 32.88166567310776, 19.24345642759068, 6.388932402952596, 36.3927502725611, 2.872229681062668, 41.309003630543785, 0.0, 0.0, 0.0, 0.0, 0.0, 0.0, 0.0, 0.0, 0.0, 0.0, 0.0, 0.0, 0.0, 0.0, 0.0], [0.0, 0.0, 0.0, 0.0, 0.0, 0.0, 0.0, 0.0, 0.0, 0.0, 0.0, 0.0, 0.0, 0.0, 0.0, 2.8045466759927113, 11.880210474589164, 14.018079805394173, 26.88789698870344, 32.88166567310776, 19.24345642759068, 6.388932402952596, 36.3927502725611, 2.872229681062668, 41.309003630543785, 0.0, 0.0, 0.0, 0.0, 0.0, 0.0, 0.0, 0.0, 0.0, 0.0, 0.0, 0.0, 0.0, 0.0, 0.0], [0.0, 0.0, 0.0, 0.0, 0.0, 0.0, 0.0, 0.0, 0.0, 0.0, 0.0, 0.0, 0.0, 0.0, 0.0, 2.8045466759927113, 11.880210474589164, 14.018079805394173, 26.88789698870344, 32.88166567310776, 19.24345642759068, 6.388932402952596, 36.3927502725611, 2.872229681062668, 41.309003630543785, 0.0, 0.0, 0.0, 0.0, 0.0, 0.0, 0.0, 0.0, 0.0, 0.0, 0.0, 0.0, 0.0, 0.0, 0.0], [0.0, 0.0, 0.0, 0.0, 0.0, 0.0, 0.0, 0.0, 0.0, 0.0, 0.0, 0.0, 0.0, 0.0, 0.0, 2.8045466759927113, 11.880210474589164, 14.018079805394173, 26.88789698870344, 32.88166567310776, 19.24345642759068, 6.388932402952596, 36.3927502725611, 2.872229681062668, 41.309003630543785, 0.0, 0.0, 0.0, 0.0, 0.0, 0.0, 0.0, 0.0, 0.0, 0.0, 0.0, 0.0, 0.0, 0.0, 0.0], [0.0, 0.0, 0.0, 0.0, 0.0, 0.0, 0.0, 0.0, 0.0, 0.0, 0.0, 0.0, 0.0, 0.0, 0.0, 2.8045466759927113, 11.880210474589164, 14.018079805394173, 26.88789698870344, 32.88166567310776, 19.24345642759068, 6.388932402952596, 36.3927502725611, 2.872229681062668, 41.309003630543785, 0.0, 0.0, 0.0, 0.0, 0.0, 0.0, 0.0, 0.0, 0.0, 0.0, 0.0, 0.0, 0.0, 0.0, 0.0], [0.0, 0.0, 0.0, 0.0, 0.0, 0.0, 0.0, 0.0, 0.0, 0.0, 0.0, 0.0, 0.0, 0.0, 0.0, 2.8045466759927113, 11.880210474589164, 14.018079805394173, 26.88789698870344, 32.88166567310776, 19.24345642759068, 6.388932402952596, 36.3927502725611, 2.872229681062668, 41.309003630543785, 0.0, 0.0, 0.0, 0.0, 0.0, 0.0, 0.0, 0.0, 0.0, 0.0, 0.0, 0.0, 0.0, 0.0, 0.0], [0.0, 0.0, 0.0, 0.0, 0.0, 0.0, 0.0, 0.0, 0.0, 0.0, 0.0, 0.0, 0.0, 0.0, 0.0, 2.8045466759927113, 11.880210474589164, 14.018079805394173, 26.88789698870344, 32.88166567310776, 19.24345642759068, 6.388932402952596, 36.3927502725611, 2.872229681062668, 41.309003630543785, 0.0, 0.0, 0.0, 0.0, 0.0, 0.0, 0.0, 0.0, 0.0, 0.0, 0.0, 0.0, 0.0, 0.0, 0.0], [0.0, 0.0, 0.0, 0.0, 0.0, 0.0, 0.0, 0.0, 0.0, 0.0, 0.0, 0.0, 0.0, 0.0, 0.0, 2.8045466759927113, 11.880210474589164, 14.018079805394173, 26.88789698870344, 32.88166567310776, 19.24345642759068, 6.388932402952596, 36.3927502725611, 2.872229681062668, 41.309003630543785, 0.0, 0.0, 0.0, 0.0, 0.0, 0.0, 0.0, 0.0, 0.0, 0.0, 0.0, 0.0, 0.0, 0.0, 0.0], [0.0, 0.0, 0.0, 0.0, 0.0, 0.0, 0.0, 0.0, 0.0, 0.0, 0.0, 0.0, 0.0, 0.0, 0.0, 2.8045466759927113, 11.880210474589164, 14.018079805394173, 26.88789698870344, 32.88166567310776, 19.24345642759068, 6.388932402952596, 36.3927502725611, 2.872229681062668, 41.309003630543785, 0.0, 0.0, 0.0, 0.0, 0.0, 0.0, 0.0, 0.0, 0.0, 0.0, 0.0, 0.0, 0.0, 0.0, 0.0], [0.0, 0.0, 0.0, 0.0, 0.0, 0.0, 0.0, 0.0, 0.0, 0.0, 0.0, 0.0, 0.0, 0.0, 0.0, 2.8045466759927113, 11.880210474589164, 14.018079805394173, 26.88789698870344, 32.88166567310776, 19.24345642759068, 6.388932402952596, 36.3927502725611, 2.872229681062668, 41.309003630543785, 0.0, 0.0, 0.0, 0.0, 0.0, 0.0, 0.0, 0.0, 0.0, 0.0, 0.0, 0.0, 0.0, 0.0, 0.0], [0.0, 0.0, 0.0, 0.0, 0.0, 0.0, 0.0, 0.0, 0.0, 0.0, 0.0, 0.0, 0.0, 0.0, 0.0, 2.8045466759927113, 11.880210474589164, 14.018079805394173, 26.88789698870344, 32.88166567310776, 19.24345642759068, 6.388932402952596, 36.3927502725611, 2.872229681062668, 41.309003630543785, 0.0, 0.0, 0.0, 0.0, 0.0, 0.0, 0.0, 0.0, 0.0, 0.0, 0.0, 0.0, 0.0, 0.0, 0.0], [0.0, 0.0, 0.0, 0.0, 0.0, 0.0, 0.0, 0.0, 0.0, 0.0, 0.0, 0.0, 0.0, 0.0, 0.0, 2.8045466759927113, 11.880210474589164, 14.018079805394173, 26.88789698870344, 32.88166567310776, 19.24345642759068, 6.388932402952596, 36.3927502725611, 2.872229681062668, 41.309003630543785, 0.0, 0.0, 0.0, 0.0, 0.0, 0.0, 0.0, 0.0, 0.0, 0.0, 0.0, 0.0, 0.0, 0.0, 0.0], [2.8045466759927113, 2.8045466759927113, 2.8045466759927113, 2.8045466759927113, 2.8045466759927113, 2.8045466759927113, 2.8045466759927113, 2.8045466759927113, 2.8045466759927113, 2.8045466759927113, 2.8045466759927113, 2.8045466759927113, 2.8045466759927113, 2.8045466759927113, 2.8045466759927113, 0.0, 14.526513338442378, 16.3986753816896, 24.8894951860421, 30.276378732860184, 22.00494834072125, 9.115558406772283, 34.22241421183332, 3.209135985674042, 38.840524579336105, 2.8045466759927113, 2.8045466759927113, 2.8045466759927113, 2.8045466759927113, 2.8045466759927113, 2.8045466759927113, 2.8045466759927113, 2.8045466759927113, 2.8045466759927113, 2.8045466759927113, 2.8045466759927113, 2.8045466759927113, 2.8045466759927113, 2.8045466759927113, 2.8045466759927113], [11.880210474589164, 11.880210474589164, 11.880210474589164, 11.880210474589164, 11.880210474589164, 11.880210474589164, 11.880210474589164, 11.880210474589164, 11.880210474589164, 11.880210474589164, 11.880210474589164, 11.880210474589164, 11.880210474589164, 11.880210474589164, 11.880210474589164, 14.526513338442378, 0.0, 3.6858483893703364, 38.219392775887336, 44.76129422207274, 7.8855334963995265, 5.548853656514519, 47.90666056129827, 13.986055667806017, 53.1397656928532, 11.880210474589164, 11.880210474589164, 11.880210474589164, 11.880210474589164, 11.880210474589164, 11.880210474589164, 11.880210474589164, 11.880210474589164, 11.880210474589164, 11.880210474589164, 11.880210474589164, 11.880210474589164, 11.880210474589164, 11.880210474589164, 11.880210474589164], [14.018079805394173, 14.018079805394173, 14.018079805394173, 14.018079805394173, 14.018079805394173, 14.018079805394173, 14.018079805394173, 14.018079805394173, 14.018079805394173, 14.018079805394173, 14.018079805394173, 14.018079805394173, 14.018079805394173, 14.018079805394173, 14.018079805394173, 16.3986753816896, 3.6858483893703364, 0.0, 40.82512963469669, 46.6059529768836, 8.61498964378516, 8.219829256283036, 50.39648639839132, 16.477530034904678, 55.23918824769578, 14.018079805394173, 14.018079805394173, 14.018079805394173, 14.018079805394173, 14.018079805394173, 14.018079805394173, 14.018079805394173, 14.018079805394173, 14.018079805394173, 14.018079805394173, 14.018079805394173, 14.018079805394173, 14.018079805394173, 14.018079805394173, 14.018079805394173], [26.88789698870344, 26.88789698870344, 26.88789698870344, 26.88789698870344, 26.88789698870344, 26.88789698870344, 26.88789698870344, 26.88789698870344, 26.88789698870344, 26.88789698870344, 26.88789698870344, 26.88789698870344, 26.88789698870344, 26.88789698870344, 26.88789698870344, 24.8894951860421, 38.219392775887336, 40.82512963469669, 0.0, 12.659359248758793, 44.43055940688924, 32.742242999727736, 9.822717705626317, 24.34913075105666, 16.848059071132322, 26.88789698870344, 26.88789698870344, 26.88789698870344, 26.88789698870344, 26.88789698870344, 26.88789698870344, 26.88789698870344, 26.88789698870344, 26.88789698870344, 26.88789698870344, 26.88789698870344, 26.88789698870344, 26.88789698870344, 26.88789698870344, 26.88789698870344], [32.88166567310776, 32.88166567310776, 32.88166567310776, 32.88166567310776, 32.88166567310776, 32.88166567310776, 32.88166567310776, 32.88166567310776, 32.88166567310776, 32.88166567310776, 32.88166567310776, 32.88166567310776, 32.88166567310776, 32.88166567310776, 32.88166567310776, 30.276378732860184, 44.76129422207274, 46.6059529768836, 12.659359248758793, 0.0, 51.93859846817953, 39.25348665521888, 10.853552308613708, 31.03448032964797, 9.433735087952682, 32.88166567310776, 32.88166567310776, 32.88166567310776, 32.88166567310776, 32.88166567310776, 32.88166567310776, 32.88166567310776, 32.88166567310776, 32.88166567310776, 32.88166567310776, 32.88166567310776, 32.88166567310776, 32.88166567310776, 32.88166567310776, 32.88166567310776], [19.24345642759068, 19.24345642759068, 19.24345642759068, 19.24345642759068, 19.24345642759068, 19.24345642759068, 19.24345642759068, 19.24345642759068, 19.24345642759068, 19.24345642759068, 19.24345642759068, 19.24345642759068, 19.24345642759068, 19.24345642759068, 19.24345642759068, 22.00494834072125, 7.8855334963995265, 8.61498964378516, 44.43055940688924, 51.93859846817953, 0.0, 12.897917095034867, 54.234483289562185, 20.904791048557083, 60.0, 19.24345642759068, 19.24345642759068, 19.24345642759068, 19.24345642759068, 19.24345642759068, 19.24345642759068, 19.24345642759068, 19.24345642759068, 19.24345642759068, 19.24345642759068, 19.24345642759068, 19.24345642759068, 19.24345642759068, 19.24345642759068, 19.24345642759068], [6.388932402952596, 6.388932402952596, 6.388932402952596, 6.388932402952596, 6.388932402952596, 6.388932402952596, 6.388932402952596, 6.388932402952596, 6.388932402952596, 6.388932402952596, 6.388932402952596, 6.388932402952596, 6.388932402952596, 6.388932402952596, 6.388932402952596, 9.115558406772283, 5.548853656514519, 8.219829256283036, 32.742242999727736, 39.25348665521888, 12.897917095034867, 0.0, 42.396314794631365, 8.447020240989932, 47.59284977222925, 6.388932402952596, 6.388932402952596, 6.388932402952596, 6.388932402952596, 6.388932402952596, 6.388932402952596, 6.388932402952596, 6.388932402952596, 6.388932402952596, 6.388932402952596, 6.388932402952596, 6.388932402952596, 6.388932402952596, 6.388932402952596, 6.388932402952596], [36.3927502725611, 36.3927502725611, 36.3927502725611, 36.3927502725611, 36.3927502725611, 36.3927502725611, 36.3927502725611, 36.3927502725611, 36.3927502725611, 36.3927502725611, 36.3927502725611, 36.3927502725611, 36.3927502725611, 36.3927502725611, 36.3927502725611, 34.22241421183332, 47.90666056129827, 50.39648639839132, 9.822717705626317, 10.853552308613708, 54.234483289562185, 42.396314794631365, 0.0, 33.96183102563465, 8.620353259139804, 36.3927502725611, 36.3927502725611, 36.3927502725611, 36.3927502725611, 36.3927502725611, 36.3927502725611, 36.3927502725611, 36.3927502725611, 36.3927502725611, 36.3927502725611, 36.3927502725611, 36.3927502725611, 36.3927502725611, 36.3927502725611, 36.3927502725611], [2.872229681062668, 2.872229681062668, 2.872229681062668, 2.872229681062668, 2.872229681062668, 2.872229681062668, 2.872229681062668, 2.872229681062668, 2.872229681062668, 2.872229681062668, 2.872229681062668, 2.872229681062668, 2.872229681062668, 2.872229681062668, 2.872229681062668, 3.209135985674042, 13.986055667806017, 16.477530034904678, 24.34913075105666, 31.03448032964797, 20.904791048557083, 8.447020240989932, 33.96183102563465, 0.0, 39.20181826525654, 2.872229681062668, 2.872229681062668, 2.872229681062668, 2.872229681062668, 2.872229681062668, 2.872229681062668, 2.872229681062668, 2.872229681062668, 2.872229681062668, 2.872229681062668, 2.872229681062668, 2.872229681062668, 2.872229681062668, 2.872229681062668, 2.872229681062668], [41.309003630543785, 41.309003630543785, 41.309003630543785, 41.309003630543785, 41.309003630543785, 41.309003630543785, 41.309003630543785, 41.309003630543785, 41.309003630543785, 41.309003630543785, 41.309003630543785, 41.309003630543785, 41.309003630543785, 41.309003630543785, 41.309003630543785, 38.840524579336105, 53.1397656928532, 55.23918824769578, 16.848059071132322, 9.433735087952682, 60.0, 47.59284977222925, 8.620353259139804, 39.20181826525654, 0.0, 41.309003630543785, 41.309003630543785, 41.309003630543785, 41.309003630543785, 41.309003630543785, 41.309003630543785, 41.309003630543785, 41.309003630543785, 41.309003630543785, 41.309003630543785, 41.309003630543785, 41.309003630543785, 41.309003630543785, 41.309003630543785, 41.309003630543785], [0.0, 0.0, 0.0, 0.0, 0.0, 0.0, 0.0, 0.0, 0.0, 0.0, 0.0, 0.0, 0.0, 0.0, 0.0, 2.8045466759927113, 11.880210474589164, 14.018079805394173, 26.88789698870344, 32.88166567310776, 19.24345642759068, 6.388932402952596, 36.3927502725611, 2.872229681062668, 41.309003630543785, 0.0, 0.0, 0.0, 0.0, 0.0, 0.0, 0.0, 0.0, 0.0, 0.0, 0.0, 0.0, 0.0, 0.0, 0.0], [0.0, 0.0, 0.0, 0.0, 0.0, 0.0, 0.0, 0.0, 0.0, 0.0, 0.0, 0.0, 0.0, 0.0, 0.0, 2.8045466759927113, 11.880210474589164, 14.018079805394173, 26.88789698870344, 32.88166567310776, 19.24345642759068, 6.388932402952596, 36.3927502725611, 2.872229681062668, 41.309003630543785, 0.0, 0.0, 0.0, 0.0, 0.0, 0.0, 0.0, 0.0, 0.0, 0.0, 0.0, 0.0, 0.0, 0.0, 0.0], [0.0, 0.0, 0.0, 0.0, 0.0, 0.0, 0.0, 0.0, 0.0, 0.0, 0.0, 0.0, 0.0, 0.0, 0.0, 2.8045466759927113, 11.880210474589164, 14.018079805394173, 26.88789698870344, 32.88166567310776, 19.24345642759068, 6.388932402952596, 36.3927502725611, 2.872229681062668, 41.309003630543785, 0.0, 0.0, 0.0, 0.0, 0.0, 0.0, 0.0, 0.0, 0.0, 0.0, 0.0, 0.0, 0.0, 0.0, 0.0], [0.0, 0.0, 0.0, 0.0, 0.0, 0.0, 0.0, 0.0, 0.0, 0.0, 0.0, 0.0, 0.0, 0.0, 0.0, 2.8045466759927113, 11.880210474589164, 14.018079805394173, 26.88789698870344, 32.88166567310776, 19.24345642759068, 6.388932402952596, 36.3927502725611, 2.872229681062668, 41.309003630543785, 0.0, 0.0, 0.0, 0.0, 0.0, 0.0, 0.0, 0.0, 0.0, 0.0, 0.0, 0.0, 0.0, 0.0, 0.0], [0.0, 0.0, 0.0, 0.0, 0.0, 0.0, 0.0, 0.0, 0.0, 0.0, 0.0, 0.0, 0.0, 0.0, 0.0, 2.8045466759927113, 11.880210474589164, 14.018079805394173, 26.88789698870344, 32.88166567310776, 19.24345642759068, 6.388932402952596, 36.3927502725611, 2.872229681062668, 41.309003630543785, 0.0, 0.0, 0.0, 0.0, 0.0, 0.0, 0.0, 0.0, 0.0, 0.0, 0.0, 0.0, 0.0, 0.0, 0.0], [0.0, 0.0, 0.0, 0.0, 0.0, 0.0, 0.0, 0.0, 0.0, 0.0, 0.0, 0.0, 0.0, 0.0, 0.0, 2.8045466759927113, 11.880210474589164, 14.018079805394173, 26.88789698870344, 32.88166567310776, 19.24345642759068, 6.388932402952596, 36.3927502725611, 2.872229681062668, 41.309003630543785, 0.0, 0.0, 0.0, 0.0, 0.0, 0.0, 0.0, 0.0, 0.0, 0.0, 0.0, 0.0, 0.0, 0.0, 0.0], [0.0, 0.0, 0.0, 0.0, 0.0, 0.0, 0.0, 0.0, 0.0, 0.0, 0.0, 0.0, 0.0, 0.0, 0.0, 2.8045466759927113, 11.880210474589164, 14.018079805394173, 26.88789698870344, 32.88166567310776, 19.24345642759068, 6.388932402952596, 36.3927502725611, 2.872229681062668, 41.309003630543785, 0.0, 0.0, 0.0, 0.0, 0.0, 0.0, 0.0, 0.0, 0.0, 0.0, 0.0, 0.0, 0.0, 0.0, 0.0], [0.0, 0.0, 0.0, 0.0, 0.0, 0.0, 0.0, 0.0, 0.0, 0.0, 0.0, 0.0, 0.0, 0.0, 0.0, 2.8045466759927113, 11.880210474589164, 14.018079805394173, 26.88789698870344, 32.88166567310776, 19.24345642759068, 6.388932402952596, 36.3927502725611, 2.872229681062668, 41.309003630543785, 0.0, 0.0, 0.0, 0.0, 0.0, 0.0, 0.0, 0.0, 0.0, 0.0, 0.0, 0.0, 0.0, 0.0, 0.0], [0.0, 0.0, 0.0, 0.0, 0.0, 0.0, 0.0, 0.0, 0.0, 0.0, 0.0, 0.0, 0.0, 0.0, 0.0, 2.8045466759927113, 11.880210474589164, 14.018079805394173, 26.88789698870344, 32.88166567310776, 19.24345642759068, 6.388932402952596, 36.3927502725611, 2.872229681062668, 41.309003630543785, 0.0, 0.0, 0.0, 0.0, 0.0, 0.0, 0.0, 0.0, 0.0, 0.0, 0.0, 0.0, 0.0, 0.0, 0.0], [0.0, 0.0, 0.0, 0.0, 0.0, 0.0, 0.0, 0.0, 0.0, 0.0, 0.0, 0.0, 0.0, 0.0, 0.0, 2.8045466759927113, 11.880210474589164, 14.018079805394173, 26.88789698870344, 32.88166567310776, 19.24345642759068, 6.388932402952596, 36.3927502725611, 2.872229681062668, 41.309003630543785, 0.0, 0.0, 0.0, 0.0, 0.0, 0.0, 0.0, 0.0, 0.0, 0.0, 0.0, 0.0, 0.0, 0.0, 0.0], [0.0, 0.0, 0.0, 0.0, 0.0, 0.0, 0.0, 0.0, 0.0, 0.0, 0.0, 0.0, 0.0, 0.0, 0.0, 2.8045466759927113, 11.880210474589164, 14.018079805394173, 26.88789698870344, 32.88166567310776, 19.24345642759068, 6.388932402952596, 36.3927502725611, 2.872229681062668, 41.309003630543785, 0.0, 0.0, 0.0, 0.0, 0.0, 0.0, 0.0, 0.0, 0.0, 0.0, 0.0, 0.0, 0.0, 0.0, 0.0], [0.0, 0.0, 0.0, 0.0, 0.0, 0.0, 0.0, 0.0, 0.0, 0.0, 0.0, 0.0, 0.0, 0.0, 0.0, 2.8045466759927113, 11.880210474589164, 14.018079805394173, 26.88789698870344, 32.88166567310776, 19.24345642759068, 6.388932402952596, 36.3927502725611, 2.872229681062668, 41.309003630543785, 0.0, 0.0, 0.0, 0.0, 0.0, 0.0, 0.0, 0.0, 0.0, 0.0, 0.0, 0.0, 0.0, 0.0, 0.0], [0.0, 0.0, 0.0, 0.0, 0.0, 0.0, 0.0, 0.0, 0.0, 0.0, 0.0, 0.0, 0.0, 0.0, 0.0, 2.8045466759927113, 11.880210474589164, 14.018079805394173, 26.88789698870344, 32.88166567310776, 19.24345642759068, 6.388932402952596, 36.3927502725611, 2.872229681062668, 41.309003630543785, 0.0, 0.0, 0.0, 0.0, 0.0, 0.0, 0.0, 0.0, 0.0, 0.0, 0.0, 0.0, 0.0, 0.0, 0.0], [0.0, 0.0, 0.0, 0.0, 0.0, 0.0, 0.0, 0.0, 0.0, 0.0, 0.0, 0.0, 0.0, 0.0, 0.0, 2.8045466759927113, 11.880210474589164, 14.018079805394173, 26.88789698870344, 32.88166567310776, 19.24345642759068, 6.388932402952596, 36.3927502725611, 2.872229681062668, 41.309003630543785, 0.0, 0.0, 0.0, 0.0, 0.0, 0.0, 0.0, 0.0, 0.0, 0.0, 0.0, 0.0, 0.0, 0.0, 0.0], [0.0, 0.0, 0.0, 0.0, 0.0, 0.0, 0.0, 0.0, 0.0, 0.0, 0.0, 0.0, 0.0, 0.0, 0.0, 2.8045466759927113, 11.880210474589164, 14.018079805394173, 26.88789698870344, 32.88166567310776, 19.24345642759068, 6.388932402952596, 36.3927502725611, 2.872229681062668, 41.309003630543785, 0.0, 0.0, 0.0, 0.0, 0.0, 0.0, 0.0, 0.0, 0.0, 0.0, 0.0, 0.0, 0.0, 0.0, 0.0]];
